\ENCODING=ISO-8859-1
\Problem name: IloCplex

Minimize
 obj: 33 y(0) + 65 y(1) + 64 y(2) + 65 y(3) + 75 y(4) + 74 y(5) + 90 y(6)
      + 111 y(7) + 111 y(8) + 113 y(9) + 63 y(10) + 64 y(11) + 64 y(12)
      + 45 y(13) + 72 y(14) + 72 y(15) + 68 y(16) + 64 y(17) + 71 y(18)
      + 93 y(19) + 103 y(20) + 79 y(21) + 71 y(22) + 41 y(23) + 43 y(24)
      + 43 y(25) + 46 y(26) + 28 y(27) + 30 y(28) + 34 y(29) + 37 y(30)
      + 40 y(31) + 46 y(32) + 50 y(33) + 43 y(34) + 46 y(35) + 52 y(36)
      + 61 y(37) + 70 y(38) + 63 y(39) + 85 y(40) + 85 y(41) + 50 y(42)
      + 68 y(43) + 72 y(44) + 46 y(45) + 36 y(46) + 35 y(47) + 22 y(48)
      + 18 y(49) + 24 y(50) + 38 y(51) + 41 y(52) + 49 y(53) + 54 y(54)
      + 57 y(55) + 75 y(56) + 67 y(57) + 76 y(58) + 60 y(59) + 64 y(60)
      + 57 y(61) + 74 y(62) + 59 y(63) + 42 y(64) + 30 y(65) + 22 y(66)
      + 23 y(67) + 30 y(68) + 36 y(69) + 44 y(70) + 50 y(71) + 41 y(72)
      + 22 y(73) + 42 y(74) + 52 y(75) + 64 y(76) + 50 y(77) + 67 y(78)
      + 30 y(79) + 22 y(80) + 64 y(81) + 60 y(82) + 58 y(83) + 60 y(84)
      + 31 y(85) + 64 y(86) + 63 y(87) + 36 y(88) + 53 y(89) + 72 y(90)
      + 60 y(91) + 67 y(92) + 22 y(93) + 10 y(94) + 12 y(95) + 59 y(96)
      + 50 y(97) + 34 y(98) + 68 y(99) + 49 y(100) + 72 y(101) + 82 y(102)
      + 82 y(103) + 42 y(104) + 84 y(105) + 67 y(106) + 22 y(107) + 57 y(108)
      + 50 y(109) + 68 y(110) + 63 y(111) + 58 y(112) + 70 y(113) + 68 y(114)
      + 55 y(115) + 87 y(116) + 33 y(117) + 53 y(118) + 22 y(119) + 8 y(120)
      + 45 y(121) + 60 y(122) + 58 y(123) + 46 y(124) + 18 y(125) + 35 y(126)
      + 36 y(127) + 50 y(128) + 50 y(129) + 69 y(130) + 93 y(131) + 99 y(132)
      + 80 y(133) + 87 y(134) + 42 y(135) + 24 y(136) + 42 y(137) + 79 y(138)
      + 44 y(139) + 40 y(140) + 49 y(141) + 55 y(142) + 31 y(143) + 39 y(144)
      + 62 y(145) + 51 y(146) + 55 y(147) + 46 y(148) + 42 y(149) + 48 y(150)
      + 46 y(151) + 70 y(152) + 36 y(153) + 38 y(154) + 18 y(155) + 64 y(156)
      + 51 y(157) + 36 y(158) + 40 y(159) + 24 y(160) + 29 y(161) + 30 y(162)
      + 34 y(163) + 42 y(164) + 34 y(165)
Subject To
 c1:   y(68)  = 1
 c2:   y(68)  = 1
 c3:   y(68)  = 1
 c4:   y(46) + y(69)  = 1
 c5:   y(46) + y(69)  = 1
 c6:   y(46) + y(69)  = 1
 c7:   y(70)  = 1
 c8:   y(70)  = 1
 c9:   y(70)  = 1
 c10:  y(60) + y(61) + y(62) + y(71)  = 1
 c11:  y(60) + y(61) + y(62) + y(71)  = 1
 c12:  y(60) + y(61) + y(62) + y(71)  = 1
 c13:  y(23) + y(24) + y(72)  = 1
 c14:  y(23) + y(24) + y(72)  = 1
 c15:  y(23) + y(24) + y(72)  = 1
 c16:  y(73)  = 1
 c17:  y(73)  = 1
 c18:  y(73)  = 1
 c19:  y(74)  = 1
 c20:  y(74)  = 1
 c21:  y(74)  = 1
 c22:  y(22) + y(75)  = 1
 c23:  y(22) + y(75)  = 1
 c24:  y(22) + y(75)  = 1
 c25:  y(2) + y(3) + y(4) + y(76)  = 1
 c26:  y(2) + y(3) + y(4) + y(76)  = 1
 c27:  y(2) + y(3) + y(4) + y(76)  = 1
 c28:  y(77)  = 1
 c29:  y(77)  = 1
 c30:  y(77)  = 1
 c31:  y(14) + y(15) + y(78)  = 1
 c32:  y(14) + y(15) + y(78)  = 1
 c33:  y(14) + y(15) + y(78)  = 1
 c34:  y(65) + y(79)  = 1
 c35:  y(65) + y(79)  = 1
 c36:  y(65) + y(79)  = 1
 c37:  y(48) + y(80)  = 1
 c38:  y(48) + y(80)  = 1
 c39:  y(48) + y(80)  = 1
 c40:  y(41) + y(81)  = 1
 c41:  y(41) + y(81)  = 1
 c42:  y(41) + y(81)  = 1
 c43:  y(44) + y(82)  = 1
 c44:  y(44) + y(82)  = 1
 c45:  y(44) + y(82)  = 1
 c46:  y(37) + y(83)  = 1
 c47:  y(37) + y(83)  = 1
 c48:  y(37) + y(83)  = 1
 c49:  y(22) + y(84)  = 1
 c50:  y(22) + y(84)  = 1
 c51:  y(22) + y(84)  = 1
 c52:  y(25) + y(26) + y(85)  = 1
 c53:  y(25) + y(26) + y(85)  = 1
 c54:  y(25) + y(26) + y(85)  = 1
 c55:  y(14) + y(15) + y(86)  = 1
 c56:  y(14) + y(15) + y(86)  = 1
 c57:  y(14) + y(15) + y(86)  = 1
 c58:  y(10) + y(11) + y(12) + y(87)  = 1
 c59:  y(10) + y(11) + y(12) + y(87)  = 1
 c60:  y(10) + y(11) + y(12) + y(87)  = 1
 c61:  y(51) + y(52) + y(88)  = 1
 c62:  y(51) + y(52) + y(88)  = 1
 c63:  y(51) + y(52) + y(88)  = 1
 c64:  y(54) + y(89)  = 1
 c65:  y(54) + y(89)  = 1
 c66:  y(54) + y(89)  = 1
 c67:  y(56) + y(90)  = 1
 c68:  y(56) + y(90)  = 1
 c69:  y(56) + y(90)  = 1
 c70:  y(62) + y(91)  = 1
 c71:  y(62) + y(91)  = 1
 c72:  y(62) + y(91)  = 1
 c73:  y(58) + y(92)  = 1
 c74:  y(58) + y(92)  = 1
 c75:  y(58) + y(92)  = 1
 c76:  y(66) + y(67) + y(93)  = 1
 c77:  y(66) + y(67) + y(93)  = 1
 c78:  y(66) + y(67) + y(93)  = 1
 c79:  y(94)  = 1
 c80:  y(94)  = 1
 c81:  y(94)  = 1
 c82:  y(95)  = 1
 c83:  y(95)  = 1
 c84:  y(95)  = 1
 c85:  y(63) + y(96)  = 1
 c86:  y(63) + y(96)  = 1
 c87:  y(63) + y(96)  = 1
 c88:  y(11) + y(12) + y(97)  = 1
 c89:  y(11) + y(12) + y(97)  = 1
 c90:  y(11) + y(12) + y(97)  = 1
 c91:  y(13) + y(98)  = 1
 c92:  y(13) + y(98)  = 1
 c93:  y(13) + y(98)  = 1
 c94:  y(16) + y(99)  = 1
 c95:  y(16) + y(99)  = 1
 c96:  y(16) + y(99)  = 1
 c97:  y(1) + y(100)  = 1
 c98:  y(1) + y(100)  = 1
 c99:  y(1) + y(100)  = 1
 c100: y(5) + y(6) + y(7) + y(8) + y(101)  = 1
 c101: y(5) + y(6) + y(7) + y(8) + y(101)  = 1
 c102: y(5) + y(6) + y(7) + y(8) + y(101)  = 1
 c103: y(6) + y(7) + y(8) + y(9) + y(102)  = 1
 c104: y(6) + y(7) + y(8) + y(9) + y(102)  = 1
 c105: y(6) + y(7) + y(8) + y(9) + y(102)  = 1
 c106: y(103)  = 1
 c107: y(103)  = 1
 c108: y(103)  = 1
 c109: y(34) + y(104)  = 1
 c110: y(34) + y(104)  = 1
 c111: y(34) + y(104)  = 1
 c112: y(40) + y(41) + y(105)  = 1
 c113: y(40) + y(41) + y(105)  = 1
 c114: y(40) + y(41) + y(105)  = 1
 c115: y(57) + y(58) + y(106)  = 1
 c116: y(57) + y(58) + y(106)  = 1
 c117: y(57) + y(58) + y(106)  = 1
 c118: y(50) + y(51) + y(107)  = 1
 c119: y(50) + y(51) + y(107)  = 1
 c120: y(50) + y(51) + y(107)  = 1
 c121: y(55) + y(108)  = 1
 c122: y(55) + y(108)  = 1
 c123: y(55) + y(108)  = 1
 c124: y(42) + y(43) + y(44) + y(109)  = 1
 c125: y(42) + y(43) + y(44) + y(109)  = 1
 c126: y(42) + y(43) + y(44) + y(109)  = 1
 c127: y(43) + y(44) + y(110)  = 1
 c128: y(43) + y(44) + y(110)  = 1
 c129: y(43) + y(44) + y(110)  = 1
 c130: y(39) + y(40) + y(41) + y(111)  = 1
 c131: y(39) + y(40) + y(41) + y(111)  = 1
 c132: y(39) + y(40) + y(41) + y(111)  = 1
 c133: y(22) + y(112)  = 1
 c134: y(22) + y(112)  = 1
 c135: y(22) + y(112)  = 1
 c136: y(21) + y(113)  = 1
 c137: y(21) + y(113)  = 1
 c138: y(21) + y(113)  = 1
 c139: y(21) + y(114)  = 1
 c140: y(21) + y(114)  = 1
 c141: y(21) + y(114)  = 1
 c142: y(115)  = 1
 c143: y(115)  = 1
 c144: y(115)  = 1
 c145: y(20) + y(116)  = 1
 c146: y(20) + y(116)  = 1
 c147: y(20) + y(116)  = 1
 c148: y(0) + y(117)  = 1
 c149: y(0) + y(117)  = 1
 c150: y(0) + y(117)  = 1
 c151: y(1) + y(118)  = 1
 c152: y(1) + y(118)  = 1
 c153: y(1) + y(118)  = 1
 c154: y(26) + y(27) + y(119)  = 1
 c155: y(26) + y(27) + y(119)  = 1
 c156: y(26) + y(27) + y(119)  = 1
 c157: y(67) + y(120)  = 1
 c158: y(67) + y(120)  = 1
 c159: y(67) + y(120)  = 1
 c160: y(61) + y(62) + y(121)  = 1
 c161: y(61) + y(62) + y(121)  = 1
 c162: y(61) + y(62) + y(121)  = 1
 c163: y(59) + y(60) + y(122)  = 1
 c164: y(59) + y(60) + y(122)  = 1
 c165: y(59) + y(60) + y(122)  = 1
 c166: y(56) + y(123)  = 1
 c167: y(56) + y(123)  = 1
 c168: y(56) + y(123)  = 1
 c169: y(45) + y(124)  = 1
 c170: y(45) + y(124)  = 1
 c171: y(45) + y(124)  = 1
 c172: y(49) + y(50) + y(51) + y(125)  = 1
 c173: y(49) + y(50) + y(51) + y(125)  = 1
 c174: y(49) + y(50) + y(51) + y(125)  = 1
 c175: y(30) + y(31) + y(32) + y(33) + y(126)  = 1
 c176: y(30) + y(31) + y(32) + y(33) + y(126)  = 1
 c177: y(30) + y(31) + y(32) + y(33) + y(126)  = 1
 c178: y(24) + y(127)  = 1
 c179: y(24) + y(127)  = 1
 c180: y(24) + y(127)  = 1
 c181: y(36) + y(37) + y(128)  = 1
 c182: y(36) + y(37) + y(128)  = 1
 c183: y(36) + y(37) + y(128)  = 1
 c184: y(15) + y(129)  = 1
 c185: y(15) + y(129)  = 1
 c186: y(15) + y(129)  = 1
 c187: y(18) + y(130)  = 1
 c188: y(18) + y(130)  = 1
 c189: y(18) + y(130)  = 1
 c190: y(19) + y(20) + y(131)  = 1
 c191: y(19) + y(20) + y(131)  = 1
 c192: y(19) + y(20) + y(131)  = 1
 c193: y(7) + y(8) + y(9) + y(132)  = 1
 c194: y(7) + y(8) + y(9) + y(132)  = 1
 c195: y(7) + y(8) + y(9) + y(132)  = 1
 c196: y(9) + y(133)  = 1
 c197: y(9) + y(133)  = 1
 c198: y(9) + y(133)  = 1
 c199: y(134)  = 1
 c200: y(134)  = 1
 c201: y(134)  = 1
 c202: y(64) + y(135)  = 1
 c203: y(64) + y(135)  = 1
 c204: y(64) + y(135)  = 1
 c205: y(136)  = 1
 c206: y(136)  = 1
 c207: y(136)  = 1
 c208: y(12) + y(13) + y(137)  = 1
 c209: y(12) + y(13) + y(137)  = 1
 c210: y(12) + y(13) + y(137)  = 1
 c211: y(8) + y(9) + y(138)  = 1
 c212: y(8) + y(9) + y(138)  = 1
 c213: y(8) + y(9) + y(138)  = 1
 c214: y(139)  = 1
 c215: y(139)  = 1
 c216: y(139)  = 1
 c217: y(52) + y(140)  = 1
 c218: y(52) + y(140)  = 1
 c219: y(52) + y(140)  = 1
 c220: y(53) + y(54) + y(141)  = 1
 c221: y(53) + y(54) + y(141)  = 1
 c222: y(53) + y(54) + y(141)  = 1
 c223: y(56) + y(142)  = 1
 c224: y(56) + y(142)  = 1
 c225: y(56) + y(142)  = 1
 c226: y(143)  = 1
 c227: y(143)  = 1
 c228: y(143)  = 1
 c229: y(144)  = 1
 c230: y(144)  = 1
 c231: y(144)  = 1
 c232: y(4) + y(5) + y(6) + y(7) + y(8) + y(145)  = 1
 c233: y(4) + y(5) + y(6) + y(7) + y(8) + y(145)  = 1
 c234: y(4) + y(5) + y(6) + y(7) + y(8) + y(145)  = 1
 c235: y(1) + y(146)  = 1
 c236: y(1) + y(146)  = 1
 c237: y(1) + y(146)  = 1
 c238:  = 1
 c239:  = 1
 c240:  = 1
 c241: y(3) + y(4) + y(5) + y(6) + y(7) + y(8) + y(147)  = 1
 c242: y(3) + y(4) + y(5) + y(6) + y(7) + y(8) + y(147)  = 1
 c243: y(3) + y(4) + y(5) + y(6) + y(7) + y(8) + y(147)  = 1
 c244: y(148)  = 1
 c245: y(148)  = 1
 c246: y(148)  = 1
 c247: y(25) + y(26) + y(149)  = 1
 c248: y(25) + y(26) + y(149)  = 1
 c249: y(25) + y(26) + y(149)  = 1
 c250: y(150)  = 1
 c251: y(150)  = 1
 c252: y(150)  = 1
 c253: y(35) + y(36) + y(37) + y(151)  = 1
 c254: y(35) + y(36) + y(37) + y(151)  = 1
 c255: y(35) + y(36) + y(37) + y(151)  = 1
 c256: y(38) + y(152)  = 1
 c257: y(38) + y(152)  = 1
 c258: y(38) + y(152)  = 1
 c259: y(153)  = 1
 c260: y(153)  = 1
 c261: y(153)  = 1
 c262: y(154)  = 1
 c263: y(154)  = 1
 c264: y(154)  = 1
 c265: y(27) + y(155)  = 1
 c266: y(27) + y(155)  = 1
 c267: y(27) + y(155)  = 1
 c268: y(17) + y(18) + y(156)  = 1
 c269: y(17) + y(18) + y(156)  = 1
 c270: y(17) + y(18) + y(156)  = 1
 c271: y(157)  = 1
 c272: y(157)  = 1
 c273: y(157)  = 1
 c274: y(31) + y(32) + y(33) + y(158)  = 1
 c275: y(31) + y(32) + y(33) + y(158)  = 1
 c276: y(31) + y(32) + y(33) + y(158)  = 1
 c277: y(32) + y(33) + y(159)  = 1
 c278: y(32) + y(33) + y(159)  = 1
 c279: y(32) + y(33) + y(159)  = 1
 c280: y(160)  = 1
 c281: y(160)  = 1
 c282: y(160)  = 1
 c283: y(47) + y(161)  = 1
 c284: y(47) + y(161)  = 1
 c285: y(47) + y(161)  = 1
 c286: y(28) + y(29) + y(30) + y(31) + y(32) + y(33) + y(162)  = 1
 c287: y(28) + y(29) + y(30) + y(31) + y(32) + y(33) + y(162)  = 1
 c288: y(28) + y(29) + y(30) + y(31) + y(32) + y(33) + y(162)  = 1
 c289: y(47) + y(163)  = 1
 c290: y(47) + y(163)  = 1
 c291: y(47) + y(163)  = 1
 c292: y(33) + y(34) + y(164)  = 1
 c293: y(33) + y(34) + y(164)  = 1
 c294: y(33) + y(34) + y(164)  = 1
 c295: y(29) + y(30) + y(31) + y(32) + y(33) + y(165)  = 1
 c296: y(29) + y(30) + y(31) + y(32) + y(33) + y(165)  = 1
 c297: y(29) + y(30) + y(31) + y(32) + y(33) + y(165)  = 1
 c298:  = 1
 c299:  = 1
 c300:  = 1
 c301: y(0) + y(1) + y(2) + y(3) + y(4) + y(5) + y(6) + y(7) + y(8) + y(9)
       + y(10) + y(11) + y(12) + y(13) + y(14) + y(15) + y(16) + y(17) + y(18)
       + y(19) + y(20) + y(21) + y(22) + y(23) + y(24) + y(25) + y(26) + y(27)
       + y(28) + y(29) + y(30) + y(31) + y(32) + y(33) + y(34) + y(35) + y(36)
       + y(37) + y(38) + y(39) + y(40) + y(41) + y(42) + y(43) + y(44) + y(45)
       + y(46) + y(47) + y(48) + y(49) + y(50) + y(51) + y(52) + y(53) + y(54)
       + y(55) + y(56) + y(57) + y(58) + y(59) + y(60) + y(61) + y(62) + y(63)
       + y(64) + y(65) + y(66) + y(67) + y(68) + y(69) + y(70) + y(71) + y(72)
       + y(73) + y(74) + y(75) + y(76) + y(77) + y(78) + y(79) + y(80) + y(81)
       + y(82) + y(83) + y(84) + y(85) + y(86) + y(87) + y(88) + y(89) + y(90)
       + y(91) + y(92) + y(93) + y(94) + y(95) + y(96) + y(97) + y(98) + y(99)
       + y(100) + y(101) + y(102) + y(103) + y(104) + y(105) + y(106) + y(107)
       + y(108) + y(109) + y(110) + y(111) + y(112) + y(113) + y(114) + y(115)
       + y(116) + y(117) + y(118) + y(119) + y(120) + y(121) + y(122) + y(123)
       + y(124) + y(125) + y(126) + y(127) + y(128) + y(129) + y(130) + y(131)
       + y(132) + y(133) + y(134) + y(135) + y(136) + y(137) + y(138) + y(139)
       + y(140) + y(141) + y(142) + y(143) + y(144) + y(145) + y(146) + y(147)
       + y(148) + y(149) + y(150) + y(151) + y(152) + y(153) + y(154) + y(155)
       + y(156) + y(157) + y(158) + y(159) + y(160) + y(161) + y(162) + y(163)
       + y(164) + y(165) >= 13
 c302: y(0) + y(1) + y(2) + y(3) + y(4) + y(5) + y(6) + y(7) + y(8) + y(9)
       + y(10) + y(11) + y(12) + y(13) + y(14) + y(15) + y(16) + y(17) + y(18)
       + y(19) + y(20) + y(21) + y(22) + y(23) + y(24) + y(25) + y(26) + y(27)
       + y(28) + y(29) + y(30) + y(31) + y(32) + y(33) + y(34) + y(35) + y(36)
       + y(37) + y(38) + y(39) + y(40) + y(41) + y(42) + y(43) + y(44) + y(45)
       + y(46) + y(47) + y(48) + y(49) + y(50) + y(51) + y(52) + y(53) + y(54)
       + y(55) + y(56) + y(57) + y(58) + y(59) + y(60) + y(61) + y(62) + y(63)
       + y(64) + y(65) + y(66) + y(67) + y(68) + y(69) + y(70) + y(71) + y(72)
       + y(73) + y(74) + y(75) + y(76) + y(77) + y(78) + y(79) + y(80) + y(81)
       + y(82) + y(83) + y(84) + y(85) + y(86) + y(87) + y(88) + y(89) + y(90)
       + y(91) + y(92) + y(93) + y(94) + y(95) + y(96) + y(97) + y(98) + y(99)
       + y(100) + y(101) + y(102) + y(103) + y(104) + y(105) + y(106) + y(107)
       + y(108) + y(109) + y(110) + y(111) + y(112) + y(113) + y(114) + y(115)
       + y(116) + y(117) + y(118) + y(119) + y(120) + y(121) + y(122) + y(123)
       + y(124) + y(125) + y(126) + y(127) + y(128) + y(129) + y(130) + y(131)
       + y(132) + y(133) + y(134) + y(135) + y(136) + y(137) + y(138) + y(139)
       + y(140) + y(141) + y(142) + y(143) + y(144) + y(145) + y(146) + y(147)
       + y(148) + y(149) + y(150) + y(151) + y(152) + y(153) + y(154) + y(155)
       + y(156) + y(157) + y(158) + y(159) + y(160) + y(161) + y(162) + y(163)
       + y(164) + y(165) <= 100
Bounds
 0 <= y(0) <= 1
 0 <= y(1) <= 1
 0 <= y(2) <= 1
 0 <= y(3) <= 1
 0 <= y(4) <= 1
 0 <= y(5) <= 1
 0 <= y(6) <= 1
 0 <= y(7) <= 1
 0 <= y(8) <= 1
 0 <= y(9) <= 1
 0 <= y(10) <= 1
 0 <= y(11) <= 1
 0 <= y(12) <= 1
 0 <= y(13) <= 1
 0 <= y(14) <= 1
 0 <= y(15) <= 1
 0 <= y(16) <= 1
 0 <= y(17) <= 1
 0 <= y(18) <= 1
 0 <= y(19) <= 1
 0 <= y(20) <= 1
 0 <= y(21) <= 1
 0 <= y(22) <= 1
 0 <= y(23) <= 1
 0 <= y(24) <= 1
 0 <= y(25) <= 1
 0 <= y(26) <= 1
 0 <= y(27) <= 1
 0 <= y(28) <= 1
 0 <= y(29) <= 1
 0 <= y(30) <= 1
 0 <= y(31) <= 1
 0 <= y(32) <= 1
 0 <= y(33) <= 1
 0 <= y(34) <= 1
 0 <= y(35) <= 1
 0 <= y(36) <= 1
 0 <= y(37) <= 1
 0 <= y(38) <= 1
 0 <= y(39) <= 1
 0 <= y(40) <= 1
 0 <= y(41) <= 1
 0 <= y(42) <= 1
 0 <= y(43) <= 1
 0 <= y(44) <= 1
 0 <= y(45) <= 1
 0 <= y(46) <= 1
 0 <= y(47) <= 1
 0 <= y(48) <= 1
 0 <= y(49) <= 1
 0 <= y(50) <= 1
 0 <= y(51) <= 1
 0 <= y(52) <= 1
 0 <= y(53) <= 1
 0 <= y(54) <= 1
 0 <= y(55) <= 1
 0 <= y(56) <= 1
 0 <= y(57) <= 1
 0 <= y(58) <= 1
 0 <= y(59) <= 1
 0 <= y(60) <= 1
 0 <= y(61) <= 1
 0 <= y(62) <= 1
 0 <= y(63) <= 1
 0 <= y(64) <= 1
 0 <= y(65) <= 1
 0 <= y(66) <= 1
 0 <= y(67) <= 1
 0 <= y(68) <= 1
 0 <= y(69) <= 1
 0 <= y(70) <= 1
 0 <= y(71) <= 1
 0 <= y(72) <= 1
 0 <= y(73) <= 1
 0 <= y(74) <= 1
 0 <= y(75) <= 1
 0 <= y(76) <= 1
 0 <= y(77) <= 1
 0 <= y(78) <= 1
 0 <= y(79) <= 1
 0 <= y(80) <= 1
 0 <= y(81) <= 1
 0 <= y(82) <= 1
 0 <= y(83) <= 1
 0 <= y(84) <= 1
 0 <= y(85) <= 1
 0 <= y(86) <= 1
 0 <= y(87) <= 1
 0 <= y(88) <= 1
 0 <= y(89) <= 1
 0 <= y(90) <= 1
 0 <= y(91) <= 1
 0 <= y(92) <= 1
 0 <= y(93) <= 1
 0 <= y(94) <= 1
 0 <= y(95) <= 1
 0 <= y(96) <= 1
 0 <= y(97) <= 1
 0 <= y(98) <= 1
 0 <= y(99) <= 1
 0 <= y(100) <= 1
 0 <= y(101) <= 1
 0 <= y(102) <= 1
 0 <= y(103) <= 1
 0 <= y(104) <= 1
 0 <= y(105) <= 1
 0 <= y(106) <= 1
 0 <= y(107) <= 1
 0 <= y(108) <= 1
 0 <= y(109) <= 1
 0 <= y(110) <= 1
 0 <= y(111) <= 1
 0 <= y(112) <= 1
 0 <= y(113) <= 1
 0 <= y(114) <= 1
 0 <= y(115) <= 1
 0 <= y(116) <= 1
 0 <= y(117) <= 1
 0 <= y(118) <= 1
 0 <= y(119) <= 1
 0 <= y(120) <= 1
 0 <= y(121) <= 1
 0 <= y(122) <= 1
 0 <= y(123) <= 1
 0 <= y(124) <= 1
 0 <= y(125) <= 1
 0 <= y(126) <= 1
 0 <= y(127) <= 1
 0 <= y(128) <= 1
 0 <= y(129) <= 1
 0 <= y(130) <= 1
 0 <= y(131) <= 1
 0 <= y(132) <= 1
 0 <= y(133) <= 1
 0 <= y(134) <= 1
 0 <= y(135) <= 1
 0 <= y(136) <= 1
 0 <= y(137) <= 1
 0 <= y(138) <= 1
 0 <= y(139) <= 1
 0 <= y(140) <= 1
 0 <= y(141) <= 1
 0 <= y(142) <= 1
 0 <= y(143) <= 1
 0 <= y(144) <= 1
 0 <= y(145) <= 1
 0 <= y(146) <= 1
 0 <= y(147) <= 1
 0 <= y(148) <= 1
 0 <= y(149) <= 1
 0 <= y(150) <= 1
 0 <= y(151) <= 1
 0 <= y(152) <= 1
 0 <= y(153) <= 1
 0 <= y(154) <= 1
 0 <= y(155) <= 1
 0 <= y(156) <= 1
 0 <= y(157) <= 1
 0 <= y(158) <= 1
 0 <= y(159) <= 1
 0 <= y(160) <= 1
 0 <= y(161) <= 1
 0 <= y(162) <= 1
 0 <= y(163) <= 1
 0 <= y(164) <= 1
 0 <= y(165) <= 1
Binaries
 y(0)  y(1)  y(2)  y(3)  y(4)  y(5)  y(6)  y(7)  y(8)  y(9)  y(10)  y(11) 
 y(12)  y(13)  y(14)  y(15)  y(16)  y(17)  y(18)  y(19)  y(20)  y(21)  y(22) 
 y(23)  y(24)  y(25)  y(26)  y(27)  y(28)  y(29)  y(30)  y(31)  y(32)  y(33) 
 y(34)  y(35)  y(36)  y(37)  y(38)  y(39)  y(40)  y(41)  y(42)  y(43)  y(44) 
 y(45)  y(46)  y(47)  y(48)  y(49)  y(50)  y(51)  y(52)  y(53)  y(54)  y(55) 
 y(56)  y(57)  y(58)  y(59)  y(60)  y(61)  y(62)  y(63)  y(64)  y(65)  y(66) 
 y(67)  y(68)  y(69)  y(70)  y(71)  y(72)  y(73)  y(74)  y(75)  y(76)  y(77) 
 y(78)  y(79)  y(80)  y(81)  y(82)  y(83)  y(84)  y(85)  y(86)  y(87)  y(88) 
 y(89)  y(90)  y(91)  y(92)  y(93)  y(94)  y(95)  y(96)  y(97)  y(98)  y(99) 
 y(100)  y(101)  y(102)  y(103)  y(104)  y(105)  y(106)  y(107)  y(108) 
 y(109)  y(110)  y(111)  y(112)  y(113)  y(114)  y(115)  y(116)  y(117) 
 y(118)  y(119)  y(120)  y(121)  y(122)  y(123)  y(124)  y(125)  y(126) 
 y(127)  y(128)  y(129)  y(130)  y(131)  y(132)  y(133)  y(134)  y(135) 
 y(136)  y(137)  y(138)  y(139)  y(140)  y(141)  y(142)  y(143)  y(144) 
 y(145)  y(146)  y(147)  y(148)  y(149)  y(150)  y(151)  y(152)  y(153) 
 y(154)  y(155)  y(156)  y(157)  y(158)  y(159)  y(160)  y(161)  y(162) 
 y(163)  y(164)  y(165) 
End
